4 3 100 1 2
0 1000
 1 40.00 50.00 0.00 0.00 0.00 0 0 0 960
 2 25.00 85.00 10.00 20.00 40.00 1 1 1 591 874
 3 22.00 75.00 10.00 30.00 19.00 1 1 1 73 350
 4 22.00 85.00 10.00 10.00 9.00 1 1 1 473 588
 5 20.00 80.00 10.00 40.00 10.00 1 1 1 418 913
 6 20.00 85.00 10.00 20.00 20.00 1 1 1 40 390
 7 18.00 75.00 10.00 20.00 23.00 1 1 1 249 646
 8 15.00 75.00 10.00 20.00 9.00 1 1 1 281 438
 9 15.00 80.00 10.00 10.00 21.00 1 1 1 272 581
 10 10.00 35.00 10.00 20.00 6.00 1 1 1 236 625
 11 10.00 40.00 10.00 30.00 10.00 1 1 1 470 687
 12 8.00 40.00 10.00 40.00 13.00 1 1 1 33 510
 13 8.00 45.00 10.00 20.00 6.00 1 1 1 166 399
 14 5.00 35.00 10.00 10.00 16.00 1 1 1 359 911
 15 5.00 45.00 10.00 10.00 30.00 1 1 1 35 457
 16 2.00 40.00 10.00 20.00 20.00 1 1 1 39 538
 17 0.00 40.00 10.00 20.00 10.00 1 1 1 214 415
 18 0.00 45.00 10.00 20.00 14.00 1 1 1 359 909
 19 44.00 5.00 10.00 20.00 17.00 1 1 1 338 451
 20 42.00 10.00 10.00 40.00 10.00 1 1 1 205 422
 21 42.00 15.00 10.00 10.00 10.00 1 1 1 511 682
 22 40.00 5.00 10.00 10.00 20.00 1 1 1 158 391
 23 40.00 15.00 10.00 40.00 19.00 1 1 1 263 606
 24 38.00 5.00 10.00 30.00 30.00 1 1 1 45 522
 25 38.00 15.00 10.00 10.00 20.00 1 1 1 598 883
 26 35.00 5.00 10.00 20.00 40.00 1 1 1 348 904
 27 95.00 30.00 10.00 30.00 27.00 1 1 1 509 668
 28 95.00 35.00 10.00 20.00 5.00 1 1 1 57 664
 29 92.00 30.00 10.00 10.00 20.00 1 1 1 68 349
 30 90.00 35.00 10.00 10.00 40.00 1 1 1 131 376
 31 88.00 30.00 10.00 10.00 20.00 1 1 1 114 497
 32 88.00 35.00 10.00 20.00 10.00 1 1 1 102 347
 33 87.00 30.00 10.00 10.00 10.00 1 1 1 564 797
 34 85.00 25.00 10.00 10.00 7.00 1 1 1 51 673
 35 85.00 35.00 10.00 30.00 16.00 1 1 1 462 631
 36 67.00 85.00 10.00 20.00 14.00 1 1 1 396 905
 37 65.00 85.00 10.00 40.00 26.00 1 1 1 43 712
 38 65.00 82.00 10.00 10.00 28.00 1 1 1 530 703
 39 62.00 80.00 10.00 30.00 5.00 1 1 1 131 544
 40 60.00 80.00 10.00 10.00 23.00 1 1 1 36 800
 41 60.00 85.00 10.00 30.00 20.00 1 1 1 233 544
 42 58.00 75.00 10.00 20.00 40.00 1 1 1 207 664
 43 55.00 80.00 10.00 10.00 10.00 1 1 1 33 624
 44 55.00 85.00 10.00 20.00 3.00 1 1 1 549 718
 45 55.00 82.00 10.00 10.00 35.00 1 1 1 62 491
 46 20.00 82.00 10.00 10.00 2.00 1 1 1 37 677
 47 18.00 80.00 10.00 10.00 19.00 1 1 1 435 662
 48 2.00 45.00 10.00 10.00 16.00 1 1 1 38 366
 49 42.00 5.00 10.00 10.00 10.00 1 1 1 636 904
 50 42.00 12.00 10.00 10.00 10.00 1 1 1 423 576
 51 72.00 35.00 10.00 30.00 13.00 1 1 1 471 662
 52 55.00 20.00 10.00 19.00 20.00 1 1 1 281 490
 53 25.00 30.00 10.00 3.00 25.00 1 1 1 109 360
 54 20.00 50.00 10.00 5.00 3.00 1 1 1 284 585
 55 55.00 60.00 10.00 16.00 30.00 1 1 1 568 753
 56 30.00 60.00 10.00 16.00 10.00 1 1 1 421 896
 57 50.00 35.00 10.00 19.00 20.00 1 1 1 404 829
 58 30.00 25.00 10.00 23.00 10.00 1 1 1 347 566
 59 15.00 10.00 10.00 20.00 10.00 1 1 1 380 902
 60 10.00 20.00 10.00 19.00 20.00 1 1 1 42 466
 61 15.00 60.00 10.00 17.00 20.00 1 1 1 613 894
 62 45.00 65.00 10.00 9.00 20.00 1 1 1 230 405
 63 65.00 35.00 10.00 3.00 30.00 1 1 1 29 587
 64 65.00 20.00 10.00 6.00 10.00 1 1 1 39 353
 65 45.00 30.00 10.00 17.00 31.00 1 1 1 20 497
 66 35.00 40.00 10.00 16.00 23.00 1 1 1 11 570
 67 41.00 37.00 10.00 16.00 20.00 1 1 1 423 828
 68 64.00 42.00 10.00 9.00 8.00 1 1 1 112 543
 69 40.00 60.00 10.00 21.00 30.00 1 1 1 441 902
 70 31.00 52.00 10.00 27.00 9.00 1 1 1 9 532
 71 35.00 69.00 10.00 23.00 10.00 1 1 1 211 930
 72 65.00 55.00 10.00 14.00 30.00 1 1 1 201 400
 73 63.00 65.00 10.00 8.00 19.00 1 1 1 27 382
 74 2.00 60.00 10.00 5.00 30.00 1 1 1 255 436
 75 20.00 20.00 10.00 8.00 10.00 1 1 1 427 913
 76 5.00 5.00 10.00 16.00 13.00 1 1 1 183 400
 77 60.00 12.00 10.00 31.00 10.00 1 1 1 162 493
 78 23.00 3.00 10.00 7.00 10.00 1 1 1 360 900
 79 8.00 56.00 10.00 27.00 27.00 1 1 1 195 654
 80 6.00 68.00 10.00 30.00 20.00 1 1 1 258 565
 81 47.00 47.00 10.00 13.00 16.00 1 1 1 426 942
 82 49.00 58.00 10.00 10.00 20.00 1 1 1 369 460
 83 27.00 43.00 10.00 9.00 10.00 1 1 1 85 338
 84 37.00 31.00 10.00 14.00 10.00 1 1 1 19 326
 85 57.00 29.00 10.00 18.00 30.00 1 1 1 304 605
 86 63.00 23.00 10.00 2.00 10.00 1 1 1 318 489
 87 21.00 24.00 10.00 28.00 14.00 1 1 1 332 485
 88 12.00 24.00 10.00 13.00 9.00 1 1 1 365 472
 89 24.00 58.00 10.00 19.00 15.00 1 1 1 100 539
 90 67.00 5.00 10.00 25.00 10.00 1 1 1 565 897
 91 37.00 47.00 10.00 6.00 18.00 1 1 1 324 513
 92 49.00 42.00 10.00 13.00 40.00 1 1 1 651 906
 93 53.00 43.00 10.00 14.00 6.00 1 1 1 14 669
 94 61.00 52.00 10.00 3.00 17.00 1 1 1 298 928
 95 57.00 48.00 10.00 23.00 20.00 1 1 1 385 518
 96 56.00 37.00 10.00 6.00 30.00 1 1 1 20 299
 97 55.00 54.00 10.00 26.00 3.00 1 1 1 538 705
 98 4.00 18.00 10.00 35.00 3.00 1 1 1 546 667
 99 26.00 52.00 10.00 9.00 16.00 1 1 1 109 354
 100 26.00 35.00 10.00 15.00 20.00 1 1 1 170 565
 101 31.00 67.00 10.00 3.00 8.00 1 1 1 262 930
